p cnf 946
-15 -295
-16 -298
-17 -301
-18 -304
-19 -307
-20 -310
-21 -313
-22 -316
-23 -319
-24 -322
-25 -325
-26 -328
-27 -331
-28 -334
-29 335
-30 336
-31 337
-32 338
-33 339
-34 340
-35 341
-36 -16
-36 -17
16 17 36
-37 -18
-37 -19
18 19 37
-38 -20
-38 -21
20 21 38
-39 -22
-39 -23
22 23 39
-40 -24
-40 -25
24 25 40
-41 -26
-41 -27
26 27 41
-42 -28
-42 -29
28 29 42
-43 -30
-43 -31
30 31 43
-44 -32
-44 -33
32 33 44
-45 -34
-45 -35
34 35 45
-46 36
-46 37
-36 -37 46
-47 38
-47 39
-38 -39 47
-48 40
-48 41
-40 -41 48
-49 42
-49 43
-42 -43 49
-50 44
-50 45
-44 -45 50
-51 46
-51 47
-46 -47 51
-52 48
-52 49
-48 -49 52
-53 51
-53 52
-51 -52 53
-54 50
-54 53
-50 -53 54
-55 -15
-55 16
15 -16 55
-56 15
-56 -16
-15 16 56
-57 -55
-57 -56
55 56 57
-58 15
-58 16
-15 -16 58
-59 -15
-59 -57
15 57 59
-60 15
-60 57
-15 -57 60
-61 -59
-61 -60
59 60 61
-62 15
-62 -57
-15 57 62
-63 -58
-63 -62
58 62 63
-64 -16
-64 17
16 -17 64
-65 16
-65 -17
-16 17 65
-66 -64
-66 -65
64 65 66
-67 16
-67 17
-16 -17 67
-68 63
-68 -66
-63 66 68
-69 -63
-69 66
63 -66 69
-70 -68
-70 -69
68 69 70
-71 -63
-71 -66
63 66 71
-72 -67
-72 -71
67 71 72
-73 -17
-73 18
17 -18 73
-74 17
-74 -18
-17 18 74
-75 -73
-75 -74
73 74 75
-76 17
-76 18
-17 -18 76
-77 72
-77 -75
-72 75 77
-78 -72
-78 75
72 -75 78
-79 -77
-79 -78
77 78 79
-80 -72
-80 -75
72 75 80
-81 -76
-81 -80
76 80 81
-82 -18
-82 19
18 -19 82
-83 18
-83 -19
-18 19 83
-84 -82
-84 -83
82 83 84
-85 18
-85 19
-18 -19 85
-86 81
-86 -84
-81 84 86
-87 -81
-87 84
81 -84 87
-88 -86
-88 -87
86 87 88
-89 -81
-89 -84
81 84 89
-90 -85
-90 -89
85 89 90
-91 -19
-91 20
19 -20 91
-92 19
-92 -20
-19 20 92
-93 -91
-93 -92
91 92 93
-94 19
-94 20
-19 -20 94
-95 90
-95 -93
-90 93 95
-96 -90
-96 93
90 -93 96
-97 -95
-97 -96
95 96 97
-98 -90
-98 -93
90 93 98
-99 -94
-99 -98
94 98 99
-100 -20
-100 21
20 -21 100
-101 20
-101 -21
-20 21 101
-102 -100
-102 -101
100 101 102
-103 20
-103 21
-20 -21 103
-104 99
-104 -102
-99 102 104
-105 -99
-105 102
99 -102 105
-106 -104
-106 -105
104 105 106
-107 -99
-107 -102
99 102 107
-108 -103
-108 -107
103 107 108
-109 -21
-109 22
21 -22 109
-110 21
-110 -22
-21 22 110
-111 -109
-111 -110
109 110 111
-112 21
-112 22
-21 -22 112
-113 108
-113 -111
-108 111 113
-114 -108
-114 111
108 -111 114
-115 -113
-115 -114
113 114 115
-116 -108
-116 -111
108 111 116
-117 -112
-117 -116
112 116 117
-118 -22
-118 23
22 -23 118
-119 22
-119 -23
-22 23 119
-120 -118
-120 -119
118 119 120
-121 22
-121 23
-22 -23 121
-122 117
-122 -120
-117 120 122
-123 -117
-123 120
117 -120 123
-124 -122
-124 -123
122 123 124
-125 -117
-125 -120
117 120 125
-126 -121
-126 -125
121 125 126
-127 -23
-127 24
23 -24 127
-128 23
-128 -24
-23 24 128
-129 -127
-129 -128
127 128 129
-130 23
-130 24
-23 -24 130
-131 126
-131 -129
-126 129 131
-132 -126
-132 129
126 -129 132
-133 -131
-133 -132
131 132 133
-134 -126
-134 -129
126 129 134
-135 -130
-135 -134
130 134 135
-136 -24
-136 25
24 -25 136
-137 24
-137 -25
-24 25 137
-138 -136
-138 -137
136 137 138
-139 24
-139 25
-24 -25 139
-140 135
-140 -138
-135 138 140
-141 -135
-141 138
135 -138 141
-142 -140
-142 -141
140 141 142
-143 -135
-143 -138
135 138 143
-144 -139
-144 -143
139 143 144
-145 -25
-145 26
25 -26 145
-146 25
-146 -26
-25 26 146
-147 -145
-147 -146
145 146 147
-148 25
-148 26
-25 -26 148
-149 144
-149 -147
-144 147 149
-150 -144
-150 147
144 -147 150
-151 -149
-151 -150
149 150 151
-152 -144
-152 -147
144 147 152
-153 -148
-153 -152
148 152 153
-154 -26
-154 27
26 -27 154
-155 26
-155 -27
-26 27 155
-156 -154
-156 -155
154 155 156
-157 26
-157 27
-26 -27 157
-158 153
-158 -156
-153 156 158
-159 -153
-159 156
153 -156 159
-160 -158
-160 -159
158 159 160
-161 -153
-161 -156
153 156 161
-162 -157
-162 -161
157 161 162
-163 -27
-163 28
27 -28 163
-164 27
-164 -28
-27 28 164
-165 -163
-165 -164
163 164 165
-166 27
-166 28
-27 -28 166
-167 162
-167 -165
-162 165 167
-168 -162
-168 165
162 -165 168
-169 -167
-169 -168
167 168 169
-170 -162
-170 -165
162 165 170
-171 -166
-171 -170
166 170 171
-172 -28
-172 29
28 -29 172
-173 28
-173 -29
-28 29 173
-174 -172
-174 -173
172 173 174
-175 28
-175 29
-28 -29 175
-176 171
-176 -174
-171 174 176
-177 -171
-177 174
171 -174 177
-178 -176
-178 -177
176 177 178
-179 -171
-179 -174
171 174 179
-180 -175
-180 -179
175 179 180
-181 -29
-181 30
29 -30 181
-182 29
-182 -30
-29 30 182
-183 -181
-183 -182
181 182 183
-184 29
-184 30
-29 -30 184
-185 180
-185 -183
-180 183 185
-186 -180
-186 183
180 -183 186
-187 -185
-187 -186
185 186 187
-188 -180
-188 -183
180 183 188
-189 -184
-189 -188
184 188 189
-190 -30
-190 31
30 -31 190
-191 30
-191 -31
-30 31 191
-192 -190
-192 -191
190 191 192
-193 30
-193 31
-30 -31 193
-194 189
-194 -192
-189 192 194
-195 -189
-195 192
189 -192 195
-196 -194
-196 -195
194 195 196
-197 -189
-197 -192
189 192 197
-198 -193
-198 -197
193 197 198
-199 -31
-199 32
31 -32 199
-200 31
-200 -32
-31 32 200
-201 -199
-201 -200
199 200 201
-202 31
-202 32
-31 -32 202
-203 198
-203 -201
-198 201 203
-204 -198
-204 201
198 -201 204
-205 -203
-205 -204
203 204 205
-206 -198
-206 -201
198 201 206
-207 -202
-207 -206
202 206 207
-208 -32
-208 33
32 -33 208
-209 32
-209 -33
-32 33 209
-210 -208
-210 -209
208 209 210
-211 32
-211 33
-32 -33 211
-212 207
-212 -210
-207 210 212
-213 -207
-213 210
207 -210 213
-214 -212
-214 -213
212 213 214
-215 -207
-215 -210
207 210 215
-216 -211
-216 -215
211 215 216
-217 -33
-217 34
33 -34 217
-218 33
-218 -34
-33 34 218
-219 -217
-219 -218
217 218 219
-220 33
-220 34
-33 -34 220
-221 216
-221 -219
-216 219 221
-222 -216
-222 219
216 -219 222
-223 -221
-223 -222
221 222 223
-224 -216
-224 -219
216 219 224
-225 -220
-225 -224
220 224 225
-226 -34
-226 35
34 -35 226
-227 34
-227 -35
-34 35 227
-228 -226
-228 -227
226 227 228
-229 34
-229 35
-34 -35 229
-230 225
-230 -228
-225 228 230
-231 -225
-231 228
225 -228 231
-232 -230
-232 -231
230 231 232
-233 -225
-233 -228
225 228 233
-234 -229
-234 -233
229 233 234
-235 15
-235 -61
-15 61 235
-236 -15
-236 17
15 -17 236
-237 -235
-237 -236
235 236 237
-238 15
-238 -70
-15 70 238
-239 -15
-239 18
15 -18 239
-240 -238
-240 -239
238 239 240
-241 15
-241 -79
-15 79 241
-242 -15
-242 19
15 -19 242
-243 -241
-243 -242
241 242 243
-244 15
-244 -88
-15 88 244
-245 -15
-245 20
15 -20 245
-246 -244
-246 -245
244 245 246
-247 15
-247 -97
-15 97 247
-248 -15
-248 21
15 -21 248
-249 -247
-249 -248
247 248 249
-250 15
-250 -106
-15 106 250
-251 -15
-251 22
15 -22 251
-252 -250
-252 -251
250 251 252
-253 15
-253 -115
-15 115 253
-254 -15
-254 23
15 -23 254
-255 -253
-255 -254
253 254 255
-256 15
-256 -124
-15 124 256
-257 -15
-257 24
15 -24 257
-258 -256
-258 -257
256 257 258
-259 15
-259 -133
-15 133 259
-260 -15
-260 25
15 -25 260
-261 -259
-261 -260
259 260 261
-262 15
-262 -142
-15 142 262
-263 -15
-263 26
15 -26 263
-264 -262
-264 -263
262 263 264
-265 15
-265 -151
-15 151 265
-266 -15
-266 27
15 -27 266
-267 -265
-267 -266
265 266 267
-268 15
-268 -160
-15 160 268
-269 -15
-269 28
15 -28 269
-270 -268
-270 -269
268 269 270
-271 15
-271 -169
-15 169 271
-272 -15
-272 29
15 -29 272
-273 -271
-273 -272
271 272 273
-274 15
-274 -178
-15 178 274
-275 -15
-275 30
15 -30 275
-276 -274
-276 -275
274 275 276
-277 15
-277 -187
-15 187 277
-278 -15
-278 31
15 -31 278
-279 -277
-279 -278
277 278 279
-280 15
-280 -196
-15 196 280
-281 -15
-281 32
15 -32 281
-282 -280
-282 -281
280 281 282
-283 15
-283 -205
-15 205 283
-284 -15
-284 33
15 -33 284
-285 -283
-285 -284
283 284 285
-286 15
-286 -214
-15 214 286
-287 -15
-287 34
15 -34 287
-288 -286
-288 -287
286 287 288
-289 15
-289 -223
-15 223 289
-290 -15
-290 35
15 -35 290
-291 -289
-291 -290
289 290 291
-292 15
-292 -232
-15 232 292
-293 1
-293 54
-1 -54 293
-294 -54
-294 55
54 -55 294
-295 -293
-295 -294
293 294 295
-296 2
-296 54
-2 -54 296
-297 -54
-297 -237
54 237 297
-298 -296
-298 -297
296 297 298
-299 3
-299 54
-3 -54 299
-300 -54
-300 -240
54 240 300
-301 -299
-301 -300
299 300 301
-302 4
-302 54
-4 -54 302
-303 -54
-303 -243
54 243 303
-304 -302
-304 -303
302 303 304
-305 5
-305 54
-5 -54 305
-306 -54
-306 -246
54 246 306
-307 -305
-307 -306
305 306 307
-308 6
-308 54
-6 -54 308
-309 -54
-309 -249
54 249 309
-310 -308
-310 -309
308 309 310
-311 7
-311 54
-7 -54 311
-312 -54
-312 -252
54 252 312
-313 -311
-313 -312
311 312 313
-314 8
-314 54
-8 -54 314
-315 -54
-315 -255
54 255 315
-316 -314
-316 -315
314 315 316
-317 9
-317 54
-9 -54 317
-318 -54
-318 -258
54 258 318
-319 -317
-319 -318
317 318 319
-320 10
-320 54
-10 -54 320
-321 -54
-321 -261
54 261 321
-322 -320
-322 -321
320 321 322
-323 11
-323 54
-11 -54 323
-324 -54
-324 -264
54 264 324
-325 -323
-325 -324
323 324 325
-326 12
-326 54
-12 -54 326
-327 -54
-327 -267
54 267 327
-328 -326
-328 -327
326 327 328
-329 13
-329 54
-13 -54 329
-330 -54
-330 -270
54 270 330
-331 -329
-331 -330
329 330 331
-332 14
-332 54
-14 -54 332
-333 -54
-333 -273
54 273 333
-334 -332
-334 -333
332 333 334
-335 -54
-335 -276
54 276 335
-336 -54
-336 -279
54 279 336
-337 -54
-337 -282
54 282 337
-338 -54
-338 -285
54 285 338
-339 -54
-339 -288
54 288 339
-340 -54
-340 -291
54 291 340
-341 -54
-341 292
54 -292 341
-342 -35
-342 234
35 -234 342
-343 15
-343 -342
-15 342 343
343
